trab-facility-location/instancias/toy.txt
2 2 5
11
18
15
15
12
298 27022
274 29545
43 42
41 35
500 15000
450 12000
60 64 63 62 61
57 58 59 57 62